************************************************************************
file with basedata            : mm39_.bas
initial value random generator: 1046882282
************************************************************************
projects                      :  1
jobs (incl. supersource/sink ):  12
horizon                       :  84
RESOURCES
  - renewable                 :  2   R
  - nonrenewable              :  2   N
  - doubly constrained        :  0   D
************************************************************************
PROJECT INFORMATION:
pronr.  #jobs rel.date duedate tardcost  MPM-Time
    1     10      0       17        9       17
************************************************************************
PRECEDENCE RELATIONS:
jobnr.    #modes  #successors   successors
   0        1          3           1   2   3
   1        3          2           4   5
   2        3          3           4   6   7
   3        3          2           9  10
   4        3          1          10
   5        3          1           6
   6        3          2           8   9
   7        3          1          10
   8        3          1          11
   9        3          1          11
  10        3          1          11
  11        1          0        
************************************************************************
REQUESTS/DURATIONS:
jobnr. mode duration  R 1  R 2  R 3  R 4  E(W 1)  E(W 2)  E(W 3)
------------------------------------------------------------------------
  0      1     0       0    0    0    0     0       0       0
  1      1     5       5    6    9    6    55      45      30
  2      1     9       7    8    5    7    135      45      63
  3      1     2       6    3    8    8    18      16      16
  4      1     2       4    6    7    6    20      14      12
  5      1     2       6   10    6    9    32      12      18
  6      1     1       3    6    8    3     9       8       3
  7      1     2       6    9    8    9    30      16      18
  8      1     7       8    4    4    8    84      28      56
  9      1     4       8    7    8    8    60      32      32
 10      1     1       6   10    5    4    16       5       4
 11      1     0       0    0    0    0     0       0       0
************************************************************************
RESOURCEAVAILABILITIES:
  R 1  R 2  R 3
   24   64   63
************************************************************************
RESOURCE LIMITS:
jobnr.  l(R 1)  u(R 1)  l(R 2)  u(R 2)  l(R 3)  u(R 3)
------------------------------------------------------------------------
  0        0       0       0       0       0       0
  1        6      11       5       9       3       6
  2        8      15       3       5       4       7
  3        5       9       4       8       4       8
  4        5      10       4       7       3       6
  5        8      16       3       6       5       9
  6        5       9       4       8       2       3
  7        8      15       4       8       5       9
  8        6      12       2       4       4       8
  9        8      15       4       8       4       8
 10        8      16       3       5       2       4
 11        0       0       0       0       0       0
************************************************************************
SCENARIOS:
------------------------------------------------------------------------
RESOURCE k = 1
s = 1: (0, 65, 125, 17, 14, 27, 9, 20, 58, 37, 10, 0)
s = 2: (0, 37, 114, 22, 27, 33, 15, 36, 47, 39, 12, 0)
s = 3: (0, 69, 205, 21, 20, 45, 6, 26, 111, 79, 12, 0)
s = 4: (0, 45, 127, 14, 12, 27, 6, 50, 102, 67, 19, 0)
s = 5: (0, 60, 117, 13, 31, 31, 9, 45, 134, 71, 13, 0)
s = 6: (0, 34, 86, 18, 18, 33, 14, 28, 58, 58, 14, 0)
s = 7: (0, 38, 111, 23, 33, 30, 6, 28, 60, 41, 19, 0)
s = 8: (0, 68, 103, 17, 14, 36, 6, 36, 52, 69, 18, 0)
s = 9: (0, 40, 86, 25, 22, 42, 8, 28, 81, 57, 27, 0)
s = 10: (0, 51, 172, 11, 23, 29, 7, 25, 136, 35, 16, 0)
s = 11: (0, 80, 139, 19, 25, 28, 10, 29, 92, 63, 20, 0)
s = 12: (0, 70, 219, 16, 22, 32, 6, 29, 144, 68, 32, 0)
s = 13: (0, 69, 191, 18, 20, 46, 10, 37, 94, 69, 16, 0)
s = 14: (0, 80, 99, 14, 15, 27, 11, 29, 47, 35, 17, 0)
s = 15: (0, 50, 171, 11, 21, 30, 6, 25, 52, 49, 25, 0)
s = 16: (0, 54, 182, 18, 24, 21, 12, 51, 60, 56, 16, 0)
s = 17: (0, 32, 103, 13, 18, 21, 12, 45, 89, 47, 18, 0)
s = 18: (0, 51, 151, 19, 24, 29, 8, 46, 136, 68, 13, 0)
s = 19: (0, 44, 163, 20, 23, 36, 6, 31, 88, 47, 14, 0)
s = 20: (0, 33, 108, 10, 13, 21, 6, 19, 81, 48, 15, 0)
s = 21: (0, 70, 100, 23, 20, 39, 7, 26, 77, 55, 14, 0)
s = 22: (0, 68, 174, 26, 24, 33, 8, 43, 79, 48, 16, 0)
s = 23: (0, 72, 163, 21, 15, 38, 10, 29, 78, 43, 13, 0)
s = 24: (0, 59, 95, 20, 13, 25, 14, 22, 43, 72, 21, 0)
s = 25: (0, 62, 126, 15, 21, 32, 7, 49, 81, 57, 17, 0)
s = 26: (0, 29, 87, 21, 20, 27, 10, 25, 97, 63, 17, 0)
s = 27: (0, 69, 142, 12, 14, 28, 6, 34, 104, 88, 12, 0)
s = 28: (0, 41, 164, 17, 17, 52, 9, 23, 105, 95, 16, 0)
s = 29: (0, 85, 141, 12, 17, 42, 9, 35, 120, 64, 10, 0)
s = 30: (0, 50, 128, 14, 15, 23, 6, 27, 52, 84, 13, 0)
s = 31: (0, 46, 108, 21, 30, 46, 9, 17, 84, 86, 14, 0)
s = 32: (0, 40, 120, 14, 14, 33, 9, 37, 101, 68, 16, 0)
s = 33: (0, 55, 90, 16, 23, 23, 8, 21, 58, 71, 23, 0)
s = 34: (0, 46, 159, 28, 16, 31, 10, 26, 60, 58, 17, 0)
s = 35: (0, 45, 188, 18, 30, 31, 9, 28, 66, 65, 19, 0)
s = 36: (0, 45, 87, 17, 17, 25, 9, 25, 101, 69, 21, 0)
s = 37: (0, 35, 208, 24, 16, 33, 9, 38, 46, 57, 16, 0)
s = 38: (0, 72, 99, 11, 18, 19, 14, 21, 67, 44, 18, 0)
s = 39: (0, 32, 198, 26, 25, 30, 9, 44, 78, 68, 13, 0)
s = 40: (0, 53, 158, 25, 21, 32, 6, 40, 66, 85, 11, 0)
s = 41: (0, 34, 194, 17, 24, 45, 15, 21, 87, 51, 15, 0)
s = 42: (0, 61, 173, 14, 28, 36, 13, 28, 74, 47, 22, 0)
s = 43: (0, 49, 187, 13, 20, 44, 9, 25, 76, 41, 23, 0)
s = 44: (0, 46, 82, 18, 29, 40, 10, 24, 72, 48, 15, 0)
s = 45: (0, 61, 169, 12, 18, 24, 8, 16, 102, 65, 13, 0)
s = 46: (0, 59, 198, 30, 23, 30, 12, 44, 86, 80, 16, 0)
s = 47: (0, 63, 108, 23, 19, 24, 13, 31, 116, 80, 9, 0)
s = 48: (0, 96, 137, 15, 22, 41, 7, 49, 76, 44, 20, 0)
s = 49: (0, 79, 212, 15, 20, 32, 9, 34, 85, 76, 13, 0)
s = 50: (0, 54, 258, 16, 31, 55, 13, 23, 108, 37, 13, 0)
s = 51: (0, 45, 201, 17, 17, 41, 14, 45, 71, 85, 12, 0)
s = 52: (0, 47, 172, 28, 18, 36, 6, 37, 129, 43, 10, 0)
s = 53: (0, 42, 123, 22, 23, 44, 8, 31, 79, 53, 15, 0)
s = 54: (0, 43, 141, 14, 13, 21, 11, 40, 85, 42, 18, 0)
s = 55: (0, 49, 196, 19, 17, 26, 9, 38, 94, 67, 18, 0)
s = 56: (0, 37, 103, 27, 19, 37, 9, 32, 87, 45, 13, 0)
s = 57: (0, 41, 123, 13, 24, 31, 7, 30, 116, 75, 12, 0)
s = 58: (0, 54, 97, 17, 18, 28, 12, 27, 111, 85, 24, 0)
s = 59: (0, 78, 137, 17, 16, 24, 10, 17, 72, 61, 14, 0)
s = 60: (0, 53, 110, 16, 22, 33, 7, 26, 69, 95, 12, 0)
s = 61: (0, 50, 200, 21, 29, 21, 10, 28, 115, 40, 14, 0)
s = 62: (0, 59, 150, 16, 13, 46, 8, 28, 70, 34, 13, 0)
s = 63: (0, 41, 119, 11, 22, 17, 11, 30, 109, 39, 24, 0)
s = 64: (0, 30, 123, 17, 15, 32, 9, 27, 69, 47, 24, 0)
s = 65: (0, 47, 116, 14, 17, 35, 12, 46, 98, 53, 18, 0)
s = 66: (0, 70, 132, 13, 20, 23, 13, 16, 77, 43, 12, 0)
s = 67: (0, 41, 108, 22, 17, 25, 9, 27, 120, 61, 19, 0)
s = 68: (0, 48, 93, 27, 19, 35, 9, 23, 58, 45, 15, 0)
s = 69: (0, 58, 197, 22, 12, 21, 9, 32, 51, 99, 17, 0)
s = 70: (0, 44, 158, 15, 12, 40, 8, 34, 64, 46, 10, 0)
s = 71: (0, 68, 93, 25, 25, 50, 7, 22, 108, 60, 13, 0)
s = 72: (0, 41, 163, 13, 18, 25, 10, 29, 96, 52, 16, 0)
s = 73: (0, 41, 124, 15, 21, 45, 10, 44, 69, 49, 17, 0)
s = 74: (0, 54, 110, 23, 14, 33, 6, 23, 114, 61, 19, 0)
s = 75: (0, 64, 137, 13, 16, 37, 11, 18, 113, 68, 23, 0)
s = 76: (0, 39, 119, 25, 29, 41, 10, 29, 51, 66, 11, 0)
s = 77: (0, 58, 126, 27, 23, 34, 10, 32, 97, 37, 16, 0)
s = 78: (0, 34, 116, 22, 13, 34, 7, 44, 120, 88, 20, 0)
s = 79: (0, 51, 121, 26, 22, 32, 13, 27, 143, 51, 14, 0)
s = 80: (0, 70, 171, 15, 16, 53, 15, 41, 118, 68, 11, 0)
s = 81: (0, 58, 111, 22, 27, 27, 10, 21, 55, 68, 21, 0)
s = 82: (0, 75, 100, 15, 15, 30, 7, 39, 104, 40, 17, 0)
s = 83: (0, 58, 113, 28, 14, 35, 7, 20, 110, 63, 22, 0)
s = 84: (0, 36, 107, 15, 18, 30, 9, 36, 98, 69, 9, 0)
s = 85: (0, 35, 169, 19, 21, 26, 14, 25, 54, 36, 16, 0)
s = 86: (0, 68, 119, 17, 15, 46, 9, 34, 54, 72, 15, 0)
s = 87: (0, 37, 129, 10, 18, 38, 12, 42, 80, 61, 10, 0)
s = 88: (0, 69, 166, 19, 24, 33, 8, 40, 78, 45, 20, 0)
s = 89: (0, 41, 152, 21, 23, 41, 16, 32, 95, 68, 16, 0)
s = 90: (0, 53, 81, 19, 24, 30, 7, 26, 99, 78, 16, 0)
s = 91: (0, 50, 113, 17, 15, 25, 15, 29, 84, 49, 13, 0)
s = 92: (0, 55, 182, 21, 34, 28, 14, 36, 70, 89, 10, 0)
s = 93: (0, 39, 123, 20, 13, 26, 9, 42, 54, 77, 13, 0)
s = 94: (0, 50, 109, 13, 19, 63, 8, 46, 85, 46, 13, 0)
s = 95: (0, 78, 228, 24, 21, 28, 11, 27, 48, 60, 21, 0)
s = 96: (0, 67, 136, 17, 12, 26, 12, 39, 60, 40, 22, 0)
s = 97: (0, 60, 190, 20, 12, 48, 11, 36, 45, 49, 13, 0)
s = 98: (0, 43, 151, 33, 13, 24, 8, 49, 80, 53, 16, 0)
s = 99: (0, 48, 124, 18, 16, 37, 12, 32, 86, 43, 10, 0)
s = 100: (0, 55, 195, 24, 13, 33, 7, 36, 112, 41, 19, 0)
s = 101: (0, 71, 162, 23, 15, 35, 9, 32, 63, 76, 18, 0)
s = 102: (0, 41, 85, 11, 39, 30, 9, 22, 109, 53, 26, 0)
s = 103: (0, 68, 198, 16, 17, 36, 8, 30, 53, 78, 17, 0)
s = 104: (0, 61, 161, 13, 16, 43, 11, 39, 84, 117, 15, 0)
s = 105: (0, 37, 189, 15, 17, 36, 11, 48, 67, 44, 19, 0)
s = 106: (0, 64, 230, 26, 27, 55, 10, 22, 55, 73, 15, 0)
s = 107: (0, 46, 130, 14, 29, 28, 8, 16, 50, 102, 11, 0)
s = 108: (0, 64, 190, 22, 34, 30, 8, 22, 107, 78, 17, 0)
s = 109: (0, 80, 130, 27, 21, 31, 9, 40, 65, 68, 26, 0)
s = 110: (0, 94, 182, 20, 23, 35, 7, 25, 96, 40, 14, 0)
s = 111: (0, 40, 193, 16, 18, 25, 10, 48, 80, 56, 19, 0)
s = 112: (0, 78, 225, 23, 25, 21, 11, 21, 127, 59, 14, 0)
s = 113: (0, 53, 105, 15, 29, 19, 14, 32, 68, 46, 16, 0)
s = 114: (0, 50, 176, 29, 12, 27, 6, 35, 61, 51, 21, 0)
s = 115: (0, 80, 99, 23, 23, 45, 9, 33, 94, 51, 21, 0)
s = 116: (0, 70, 176, 23, 19, 41, 13, 18, 98, 42, 18, 0)
s = 117: (0, 64, 153, 14, 19, 22, 11, 36, 161, 45, 17, 0)
s = 118: (0, 76, 148, 17, 22, 39, 7, 25, 54, 64, 15, 0)
s = 119: (0, 60, 80, 12, 26, 25, 9, 21, 97, 39, 17, 0)
s = 120: (0, 31, 84, 23, 14, 21, 11, 32, 66, 51, 19, 0)
s = 121: (0, 84, 121, 24, 22, 45, 12, 24, 117, 74, 15, 0)
s = 122: (0, 61, 133, 16, 15, 21, 14, 36, 63, 71, 13, 0)
s = 123: (0, 59, 244, 26, 18, 22, 12, 28, 121, 56, 13, 0)
s = 124: (0, 79, 111, 15, 24, 30, 8, 27, 69, 47, 11, 0)
s = 125: (0, 44, 120, 16, 20, 43, 11, 26, 109, 40, 17, 0)
s = 126: (0, 40, 157, 15, 17, 33, 12, 31, 109, 57, 26, 0)
s = 127: (0, 86, 136, 16, 22, 43, 11, 30, 99, 67, 16, 0)
s = 128: (0, 72, 125, 12, 15, 38, 11, 24, 118, 41, 13, 0)
s = 129: (0, 58, 129, 11, 22, 22, 10, 32, 79, 71, 20, 0)
s = 130: (0, 40, 142, 22, 13, 42, 9, 41, 94, 65, 16, 0)
s = 131: (0, 67, 140, 11, 18, 25, 10, 26, 66, 49, 23, 0)
s = 132: (0, 85, 111, 17, 21, 48, 12, 29, 55, 34, 17, 0)
s = 133: (0, 54, 100, 18, 27, 52, 15, 21, 66, 78, 11, 0)
s = 134: (0, 40, 184, 17, 26, 37, 8, 48, 83, 72, 26, 0)
s = 135: (0, 47, 104, 16, 23, 40, 14, 35, 57, 37, 13, 0)
s = 136: (0, 59, 120, 18, 25, 29, 8, 40, 75, 58, 11, 0)
s = 137: (0, 74, 170, 23, 25, 52, 7, 23, 111, 71, 14, 0)
s = 138: (0, 89, 152, 27, 16, 22, 11, 22, 52, 56, 28, 0)
s = 139: (0, 56, 85, 34, 17, 20, 8, 47, 66, 98, 16, 0)
s = 140: (0, 37, 149, 24, 20, 30, 8, 29, 84, 39, 20, 0)
s = 141: (0, 47, 115, 21, 19, 22, 10, 29, 64, 41, 9, 0)
s = 142: (0, 33, 157, 20, 16, 40, 9, 36, 77, 57, 21, 0)
s = 143: (0, 52, 190, 23, 28, 21, 11, 25, 106, 85, 18, 0)
s = 144: (0, 80, 154, 16, 24, 40, 12, 23, 58, 89, 13, 0)
s = 145: (0, 84, 199, 11, 15, 31, 9, 29, 68, 81, 11, 0)
s = 146: (0, 56, 130, 25, 17, 60, 12, 18, 58, 36, 19, 0)
s = 147: (0, 31, 108, 19, 13, 26, 10, 28, 93, 46, 13, 0)
s = 148: (0, 36, 90, 19, 35, 27, 9, 44, 60, 78, 21, 0)
s = 149: (0, 54, 151, 24, 23, 38, 11, 46, 108, 78, 19, 0)
s = 150: (0, 64, 164, 12, 18, 47, 12, 26, 123, 63, 13, 0)
s = 151: (0, 50, 110, 33, 15, 25, 8, 21, 64, 43, 16, 0)
s = 152: (0, 36, 91, 27, 16, 33, 5, 16, 99, 76, 19, 0)
s = 153: (0, 53, 111, 15, 18, 28, 11, 42, 109, 53, 14, 0)
s = 154: (0, 59, 155, 21, 19, 41, 10, 34, 51, 46, 19, 0)
s = 155: (0, 70, 131, 19, 21, 23, 9, 30, 78, 84, 25, 0)
s = 156: (0, 65, 155, 21, 15, 23, 9, 37, 103, 58, 18, 0)
s = 157: (0, 41, 117, 13, 12, 18, 13, 17, 86, 90, 17, 0)
s = 158: (0, 41, 71, 25, 17, 24, 9, 21, 132, 64, 20, 0)
s = 159: (0, 50, 150, 21, 24, 36, 9, 41, 77, 74, 22, 0)
s = 160: (0, 43, 160, 21, 18, 26, 7, 39, 62, 62, 17, 0)
s = 161: (0, 50, 191, 21, 22, 36, 8, 19, 81, 89, 13, 0)
s = 162: (0, 71, 175, 15, 31, 38, 11, 22, 85, 60, 28, 0)
s = 163: (0, 54, 133, 16, 21, 33, 7, 43, 113, 96, 11, 0)
s = 164: (0, 85, 92, 12, 24, 44, 6, 27, 109, 73, 11, 0)
s = 165: (0, 50, 110, 14, 16, 31, 9, 33, 113, 67, 18, 0)
s = 166: (0, 57, 97, 18, 22, 50, 7, 24, 142, 38, 12, 0)
s = 167: (0, 113, 100, 27, 23, 26, 13, 35, 99, 77, 17, 0)
s = 168: (0, 50, 88, 13, 15, 29, 17, 41, 68, 76, 26, 0)
s = 169: (0, 88, 182, 20, 21, 35, 12, 26, 47, 47, 13, 0)
s = 170: (0, 48, 159, 14, 32, 41, 11, 29, 83, 39, 14, 0)
s = 171: (0, 55, 140, 15, 33, 35, 7, 33, 55, 83, 16, 0)
s = 172: (0, 80, 147, 17, 18, 26, 9, 35, 79, 91, 22, 0)
s = 173: (0, 78, 92, 23, 17, 34, 7, 24, 101, 44, 12, 0)
s = 174: (0, 60, 125, 14, 21, 23, 7, 23, 87, 52, 18, 0)
s = 175: (0, 45, 170, 14, 28, 38, 6, 38, 109, 63, 13, 0)
s = 176: (0, 61, 88, 19, 23, 20, 17, 17, 78, 46, 18, 0)
s = 177: (0, 76, 136, 21, 31, 36, 7, 23, 75, 70, 19, 0)
s = 178: (0, 45, 109, 11, 19, 38, 9, 31, 76, 54, 9, 0)
s = 179: (0, 34, 178, 14, 22, 41, 8, 35, 105, 79, 14, 0)
s = 180: (0, 42, 122, 16, 12, 20, 9, 26, 51, 42, 16, 0)
s = 181: (0, 66, 220, 19, 16, 47, 11, 24, 82, 70, 19, 0)
s = 182: (0, 31, 105, 18, 21, 38, 13, 41, 105, 60, 17, 0)
s = 183: (0, 85, 91, 30, 21, 27, 9, 24, 106, 57, 13, 0)
s = 184: (0, 53, 153, 14, 12, 22, 8, 41, 78, 51, 17, 0)
s = 185: (0, 53, 88, 15, 13, 29, 13, 25, 101, 42, 13, 0)
s = 186: (0, 36, 181, 26, 20, 37, 9, 24, 59, 76, 14, 0)
s = 187: (0, 29, 168, 24, 19, 27, 10, 23, 117, 61, 13, 0)
s = 188: (0, 54, 136, 21, 16, 42, 6, 25, 53, 100, 24, 0)
s = 189: (0, 72, 134, 14, 19, 39, 9, 32, 89, 106, 16, 0)
s = 190: (0, 63, 75, 20, 15, 31, 7, 35, 55, 49, 14, 0)
s = 191: (0, 55, 155, 15, 23, 50, 5, 26, 86, 56, 19, 0)
s = 192: (0, 89, 96, 15, 14, 47, 6, 28, 69, 91, 22, 0)
s = 193: (0, 53, 130, 23, 19, 48, 6, 42, 76, 85, 13, 0)
s = 194: (0, 51, 195, 18, 18, 33, 9, 48, 105, 71, 16, 0)
s = 195: (0, 35, 125, 28, 16, 59, 6, 20, 58, 78, 16, 0)
s = 196: (0, 49, 105, 11, 20, 31, 7, 38, 88, 50, 22, 0)
s = 197: (0, 50, 109, 14, 16, 28, 10, 23, 57, 87, 10, 0)
s = 198: (0, 83, 102, 12, 20, 41, 8, 33, 93, 56, 22, 0)
s = 199: (0, 66, 89, 20, 14, 37, 12, 28, 117, 36, 13, 0)
s = 200: (0, 44, 178, 22, 18, 43, 13, 23, 78, 31, 19, 0)
------------------------------------------------------------------------
RESOURCE k = 2
s = 1: (0, 53, 42, 16, 10, 10, 8, 11, 20, 20, 3, 0)
s = 2: (0, 31, 38, 20, 19, 13, 13, 19, 16, 21, 4, 0)
s = 3: (0, 57, 69, 18, 14, 17, 6, 14, 37, 42, 4, 0)
s = 4: (0, 37, 43, 12, 9, 11, 6, 27, 34, 36, 6, 0)
s = 5: (0, 50, 39, 11, 22, 12, 8, 24, 45, 38, 5, 0)
s = 6: (0, 28, 29, 16, 13, 13, 12, 15, 20, 31, 5, 0)
s = 7: (0, 31, 37, 20, 23, 12, 6, 15, 20, 22, 6, 0)
s = 8: (0, 55, 35, 15, 10, 14, 5, 19, 18, 37, 6, 0)
s = 9: (0, 33, 29, 22, 16, 16, 7, 15, 27, 30, 9, 0)
s = 10: (0, 42, 58, 9, 16, 11, 7, 13, 46, 19, 5, 0)
s = 11: (0, 66, 47, 17, 18, 11, 9, 16, 31, 34, 7, 0)
s = 12: (0, 57, 73, 14, 15, 12, 6, 15, 48, 36, 10, 0)
s = 13: (0, 57, 64, 16, 14, 18, 9, 20, 32, 37, 5, 0)
s = 14: (0, 66, 33, 13, 11, 10, 10, 16, 16, 19, 6, 0)
s = 15: (0, 41, 57, 10, 15, 12, 6, 14, 18, 26, 8, 0)
s = 16: (0, 44, 61, 16, 17, 8, 11, 28, 20, 30, 5, 0)
s = 17: (0, 26, 35, 12, 13, 8, 11, 24, 30, 25, 6, 0)
s = 18: (0, 41, 51, 17, 17, 11, 8, 25, 46, 37, 4, 0)
s = 19: (0, 36, 55, 17, 16, 14, 6, 17, 30, 25, 5, 0)
s = 20: (0, 27, 36, 9, 9, 8, 5, 11, 27, 26, 5, 0)
s = 21: (0, 57, 34, 21, 14, 15, 6, 14, 26, 30, 5, 0)
s = 22: (0, 56, 58, 24, 17, 13, 7, 23, 27, 26, 5, 0)
s = 23: (0, 59, 55, 19, 11, 15, 9, 16, 26, 23, 4, 0)
s = 24: (0, 48, 32, 18, 9, 10, 12, 12, 15, 38, 7, 0)
s = 25: (0, 51, 42, 14, 15, 12, 6, 26, 27, 31, 6, 0)
s = 26: (0, 24, 29, 19, 14, 11, 9, 14, 33, 34, 6, 0)
s = 27: (0, 56, 48, 11, 10, 11, 6, 18, 35, 47, 4, 0)
s = 28: (0, 33, 55, 15, 12, 20, 8, 12, 35, 51, 5, 0)
s = 29: (0, 69, 47, 11, 12, 16, 8, 19, 40, 34, 3, 0)
s = 30: (0, 41, 43, 13, 11, 9, 6, 15, 18, 45, 5, 0)
s = 31: (0, 38, 36, 19, 21, 18, 8, 9, 28, 46, 5, 0)
s = 32: (0, 33, 40, 13, 10, 13, 8, 20, 34, 36, 5, 0)
s = 33: (0, 45, 30, 14, 16, 9, 7, 12, 20, 38, 8, 0)
s = 34: (0, 38, 53, 25, 12, 12, 9, 14, 20, 31, 6, 0)
s = 35: (0, 37, 63, 16, 21, 12, 8, 15, 22, 35, 6, 0)
s = 36: (0, 37, 29, 15, 12, 10, 8, 14, 34, 37, 7, 0)
s = 37: (0, 29, 70, 21, 11, 13, 8, 20, 16, 31, 5, 0)
s = 38: (0, 59, 33, 10, 13, 7, 12, 12, 23, 24, 6, 0)
s = 39: (0, 27, 66, 23, 18, 12, 8, 24, 26, 37, 4, 0)
s = 40: (0, 43, 53, 22, 15, 12, 6, 21, 22, 46, 4, 0)
s = 41: (0, 28, 65, 15, 17, 17, 13, 11, 29, 27, 5, 0)
s = 42: (0, 50, 58, 12, 20, 14, 12, 15, 25, 25, 7, 0)
s = 43: (0, 40, 63, 12, 14, 17, 8, 14, 26, 22, 8, 0)
s = 44: (0, 38, 28, 16, 20, 15, 9, 13, 24, 26, 5, 0)
s = 45: (0, 50, 57, 11, 12, 9, 7, 9, 34, 35, 4, 0)
s = 46: (0, 49, 66, 27, 17, 11, 11, 24, 29, 43, 5, 0)
s = 47: (0, 51, 36, 21, 14, 9, 12, 17, 39, 43, 3, 0)
s = 48: (0, 79, 46, 14, 16, 16, 6, 27, 26, 24, 7, 0)
s = 49: (0, 65, 71, 14, 14, 12, 8, 19, 29, 41, 4, 0)
s = 50: (0, 45, 86, 14, 22, 21, 12, 12, 36, 20, 4, 0)
s = 51: (0, 37, 67, 15, 12, 16, 13, 24, 24, 46, 4, 0)
s = 52: (0, 38, 58, 25, 12, 14, 5, 20, 43, 23, 3, 0)
s = 53: (0, 35, 41, 19, 16, 17, 7, 17, 27, 29, 5, 0)
s = 54: (0, 35, 47, 12, 9, 8, 10, 21, 29, 23, 6, 0)
s = 55: (0, 40, 66, 17, 12, 10, 8, 20, 32, 36, 6, 0)
s = 56: (0, 30, 35, 24, 14, 14, 8, 17, 29, 24, 4, 0)
s = 57: (0, 34, 41, 12, 17, 12, 7, 16, 39, 40, 4, 0)
s = 58: (0, 44, 33, 15, 13, 11, 11, 14, 37, 46, 8, 0)
s = 59: (0, 64, 46, 16, 12, 9, 9, 10, 24, 33, 5, 0)
s = 60: (0, 43, 37, 14, 16, 13, 6, 14, 23, 51, 4, 0)
s = 61: (0, 41, 67, 19, 20, 8, 9, 15, 39, 22, 5, 0)
s = 62: (0, 48, 50, 14, 9, 17, 7, 15, 24, 19, 4, 0)
s = 63: (0, 33, 40, 10, 16, 7, 10, 16, 37, 21, 8, 0)
s = 64: (0, 25, 41, 15, 11, 12, 8, 14, 23, 25, 8, 0)
s = 65: (0, 38, 39, 13, 12, 13, 11, 25, 33, 28, 6, 0)
s = 66: (0, 58, 44, 11, 14, 9, 12, 9, 26, 23, 4, 0)
s = 67: (0, 33, 36, 19, 12, 10, 8, 15, 40, 33, 6, 0)
s = 68: (0, 39, 31, 24, 13, 14, 8, 13, 20, 24, 5, 0)
s = 69: (0, 47, 66, 20, 9, 8, 8, 17, 17, 53, 6, 0)
s = 70: (0, 36, 53, 14, 8, 15, 7, 18, 22, 25, 3, 0)
s = 71: (0, 56, 31, 22, 17, 19, 7, 12, 36, 32, 4, 0)
s = 72: (0, 33, 55, 11, 13, 10, 9, 15, 32, 28, 5, 0)
s = 73: (0, 33, 42, 13, 15, 17, 9, 24, 23, 26, 6, 0)
s = 74: (0, 44, 37, 20, 10, 13, 6, 13, 38, 33, 6, 0)
s = 75: (0, 52, 46, 12, 11, 14, 9, 10, 38, 37, 8, 0)
s = 76: (0, 32, 40, 22, 20, 16, 9, 15, 17, 36, 4, 0)
s = 77: (0, 48, 42, 24, 16, 13, 9, 17, 33, 20, 5, 0)
s = 78: (0, 28, 39, 19, 10, 13, 6, 24, 40, 47, 7, 0)
s = 79: (0, 42, 41, 23, 16, 12, 12, 15, 48, 28, 5, 0)
s = 80: (0, 57, 57, 14, 11, 20, 13, 22, 40, 36, 4, 0)
s = 81: (0, 47, 37, 20, 19, 11, 9, 12, 19, 36, 7, 0)
s = 82: (0, 62, 34, 13, 11, 12, 7, 21, 35, 22, 6, 0)
s = 83: (0, 48, 38, 25, 10, 14, 6, 11, 37, 34, 7, 0)
s = 84: (0, 30, 36, 14, 13, 12, 8, 20, 33, 37, 3, 0)
s = 85: (0, 29, 57, 17, 15, 10, 13, 14, 18, 19, 5, 0)
s = 86: (0, 56, 40, 16, 11, 17, 8, 19, 18, 39, 5, 0)
s = 87: (0, 30, 43, 9, 13, 15, 10, 23, 27, 33, 3, 0)
s = 88: (0, 57, 56, 17, 17, 13, 7, 22, 26, 24, 7, 0)
s = 89: (0, 33, 51, 19, 16, 16, 14, 18, 32, 37, 5, 0)
s = 90: (0, 44, 27, 17, 17, 11, 6, 14, 33, 42, 5, 0)
s = 91: (0, 41, 38, 15, 11, 10, 14, 16, 28, 26, 4, 0)
s = 92: (0, 45, 61, 18, 24, 11, 13, 20, 24, 48, 4, 0)
s = 93: (0, 32, 41, 18, 9, 10, 8, 23, 18, 42, 5, 0)
s = 94: (0, 41, 37, 12, 14, 24, 8, 25, 29, 25, 4, 0)
s = 95: (0, 64, 76, 22, 15, 11, 9, 15, 16, 32, 7, 0)
s = 96: (0, 55, 46, 16, 8, 10, 11, 21, 20, 22, 7, 0)
s = 97: (0, 49, 64, 18, 9, 18, 10, 20, 15, 26, 4, 0)
s = 98: (0, 35, 51, 29, 9, 9, 7, 26, 27, 28, 5, 0)
s = 99: (0, 39, 42, 16, 11, 14, 10, 18, 29, 23, 4, 0)
s = 100: (0, 45, 65, 21, 9, 13, 7, 20, 38, 22, 6, 0)
s = 101: (0, 58, 54, 20, 11, 13, 8, 17, 21, 41, 6, 0)
s = 102: (0, 33, 29, 10, 27, 12, 8, 12, 37, 28, 8, 0)
s = 103: (0, 56, 66, 14, 12, 14, 7, 16, 18, 42, 6, 0)
s = 104: (0, 50, 54, 12, 11, 16, 10, 21, 28, 63, 5, 0)
s = 105: (0, 31, 63, 14, 12, 14, 10, 26, 23, 24, 6, 0)
s = 106: (0, 52, 77, 23, 19, 21, 9, 12, 19, 39, 5, 0)
s = 107: (0, 38, 44, 13, 21, 11, 7, 9, 17, 55, 4, 0)
s = 108: (0, 52, 64, 19, 24, 12, 7, 12, 36, 42, 6, 0)
s = 109: (0, 66, 44, 24, 15, 12, 8, 21, 22, 37, 8, 0)
s = 110: (0, 77, 61, 18, 16, 13, 6, 14, 32, 22, 5, 0)
s = 111: (0, 32, 65, 14, 12, 10, 9, 26, 27, 30, 6, 0)
s = 112: (0, 64, 75, 20, 18, 8, 10, 12, 43, 32, 5, 0)
s = 113: (0, 43, 35, 14, 20, 7, 13, 17, 23, 25, 5, 0)
s = 114: (0, 41, 59, 26, 9, 11, 6, 19, 21, 28, 7, 0)
s = 115: (0, 66, 33, 21, 16, 17, 8, 18, 32, 27, 7, 0)
s = 116: (0, 57, 59, 20, 14, 16, 11, 10, 33, 23, 6, 0)
s = 117: (0, 52, 51, 12, 13, 9, 10, 19, 54, 24, 6, 0)
s = 118: (0, 62, 50, 15, 16, 15, 6, 13, 18, 34, 5, 0)
s = 119: (0, 49, 27, 11, 18, 10, 8, 12, 33, 21, 6, 0)
s = 120: (0, 26, 28, 21, 10, 8, 10, 17, 22, 28, 6, 0)
s = 121: (0, 69, 41, 21, 16, 17, 11, 13, 39, 40, 5, 0)
s = 122: (0, 50, 45, 14, 11, 8, 12, 19, 21, 38, 4, 0)
s = 123: (0, 49, 82, 23, 13, 9, 11, 15, 41, 30, 4, 0)
s = 124: (0, 65, 37, 14, 17, 12, 7, 15, 23, 26, 4, 0)
s = 125: (0, 36, 40, 14, 14, 17, 9, 14, 37, 22, 6, 0)
s = 126: (0, 33, 53, 13, 12, 13, 11, 17, 37, 31, 8, 0)
s = 127: (0, 70, 46, 14, 16, 16, 10, 16, 33, 36, 5, 0)
s = 128: (0, 59, 42, 11, 10, 15, 10, 13, 40, 22, 4, 0)
s = 129: (0, 47, 43, 9, 15, 9, 9, 17, 27, 38, 7, 0)
s = 130: (0, 33, 48, 19, 9, 16, 8, 22, 32, 35, 5, 0)
s = 131: (0, 55, 47, 10, 12, 10, 9, 14, 22, 27, 7, 0)
s = 132: (0, 69, 37, 15, 15, 18, 11, 16, 19, 18, 6, 0)
s = 133: (0, 44, 34, 16, 19, 20, 13, 12, 22, 42, 4, 0)
s = 134: (0, 33, 62, 15, 18, 14, 7, 26, 28, 39, 9, 0)
s = 135: (0, 39, 35, 15, 16, 15, 13, 19, 19, 20, 5, 0)
s = 136: (0, 48, 40, 16, 18, 11, 7, 22, 25, 31, 4, 0)
s = 137: (0, 61, 57, 21, 18, 20, 6, 12, 37, 38, 5, 0)
s = 138: (0, 73, 51, 24, 11, 9, 10, 12, 18, 30, 9, 0)
s = 139: (0, 46, 29, 30, 12, 8, 7, 25, 22, 52, 5, 0)
s = 140: (0, 30, 50, 22, 14, 11, 7, 16, 28, 21, 7, 0)
s = 141: (0, 38, 39, 19, 14, 9, 9, 16, 22, 22, 3, 0)
s = 142: (0, 27, 53, 18, 11, 15, 8, 19, 26, 30, 7, 0)
s = 143: (0, 43, 64, 20, 20, 8, 10, 13, 36, 45, 6, 0)
s = 144: (0, 65, 52, 14, 17, 15, 10, 12, 20, 48, 4, 0)
s = 145: (0, 69, 67, 9, 11, 12, 8, 16, 23, 43, 4, 0)
s = 146: (0, 46, 44, 22, 12, 23, 11, 10, 20, 19, 6, 0)
s = 147: (0, 26, 36, 17, 9, 10, 9, 15, 31, 25, 4, 0)
s = 148: (0, 29, 30, 17, 25, 10, 8, 24, 20, 42, 7, 0)
s = 149: (0, 44, 51, 21, 16, 14, 10, 25, 36, 42, 6, 0)
s = 150: (0, 52, 55, 10, 12, 18, 11, 14, 41, 34, 4, 0)
s = 151: (0, 41, 37, 29, 11, 10, 7, 11, 22, 23, 5, 0)
s = 152: (0, 29, 31, 24, 11, 13, 5, 9, 33, 41, 6, 0)
s = 153: (0, 43, 37, 14, 13, 11, 10, 22, 37, 29, 5, 0)
s = 154: (0, 49, 52, 19, 14, 16, 9, 18, 17, 25, 6, 0)
s = 155: (0, 58, 44, 17, 15, 9, 8, 16, 26, 45, 8, 0)
s = 156: (0, 53, 52, 19, 10, 9, 8, 20, 35, 31, 6, 0)
s = 157: (0, 34, 39, 11, 9, 7, 11, 9, 29, 48, 6, 0)
s = 158: (0, 33, 24, 22, 12, 9, 8, 12, 44, 34, 6, 0)
s = 159: (0, 41, 50, 19, 17, 14, 8, 22, 26, 40, 7, 0)
s = 160: (0, 35, 54, 19, 13, 10, 6, 21, 21, 33, 6, 0)
s = 161: (0, 41, 64, 18, 15, 14, 7, 10, 27, 48, 4, 0)
s = 162: (0, 58, 59, 13, 22, 14, 9, 12, 29, 32, 9, 0)
s = 163: (0, 44, 45, 14, 15, 13, 6, 23, 38, 51, 4, 0)
s = 164: (0, 69, 31, 10, 17, 17, 6, 15, 37, 39, 4, 0)
s = 165: (0, 41, 37, 12, 11, 12, 8, 18, 38, 36, 6, 0)
s = 166: (0, 46, 33, 16, 15, 19, 6, 13, 48, 21, 4, 0)
s = 167: (0, 93, 34, 24, 16, 10, 12, 19, 33, 41, 6, 0)
s = 168: (0, 41, 30, 12, 11, 11, 15, 22, 23, 41, 8, 0)
s = 169: (0, 72, 61, 18, 15, 13, 11, 14, 16, 25, 4, 0)
s = 170: (0, 39, 53, 12, 23, 16, 10, 15, 28, 21, 5, 0)
s = 171: (0, 45, 47, 13, 23, 13, 6, 18, 19, 44, 5, 0)
s = 172: (0, 65, 49, 15, 13, 10, 8, 19, 27, 49, 7, 0)
s = 173: (0, 64, 31, 20, 12, 13, 6, 13, 34, 24, 4, 0)
s = 174: (0, 49, 42, 12, 15, 9, 6, 13, 29, 28, 6, 0)
s = 175: (0, 37, 57, 13, 20, 15, 6, 21, 37, 34, 4, 0)
s = 176: (0, 50, 30, 17, 16, 8, 15, 9, 26, 25, 6, 0)
s = 177: (0, 63, 46, 18, 22, 14, 6, 13, 25, 37, 6, 0)
s = 178: (0, 37, 37, 10, 13, 15, 8, 17, 26, 29, 3, 0)
s = 179: (0, 28, 60, 12, 15, 16, 8, 19, 35, 42, 5, 0)
s = 180: (0, 34, 41, 15, 9, 8, 8, 14, 17, 23, 5, 0)
s = 181: (0, 54, 74, 17, 11, 18, 10, 13, 28, 38, 6, 0)
s = 182: (0, 26, 35, 16, 15, 14, 12, 22, 35, 32, 6, 0)
s = 183: (0, 70, 31, 26, 15, 10, 8, 13, 36, 31, 4, 0)
s = 184: (0, 44, 51, 13, 9, 9, 7, 22, 26, 28, 6, 0)
s = 185: (0, 43, 30, 13, 10, 11, 11, 13, 34, 22, 4, 0)
s = 186: (0, 30, 61, 23, 14, 14, 8, 13, 20, 41, 5, 0)
s = 187: (0, 24, 56, 21, 13, 10, 9, 13, 39, 33, 4, 0)
s = 188: (0, 45, 46, 19, 12, 16, 6, 14, 18, 53, 8, 0)
s = 189: (0, 59, 45, 13, 14, 15, 8, 17, 30, 57, 5, 0)
s = 190: (0, 52, 25, 18, 10, 12, 6, 19, 19, 26, 5, 0)
s = 191: (0, 45, 52, 14, 16, 19, 5, 14, 29, 30, 6, 0)
s = 192: (0, 73, 32, 13, 10, 18, 5, 15, 23, 49, 7, 0)
s = 193: (0, 44, 44, 21, 14, 18, 5, 23, 26, 46, 4, 0)
s = 194: (0, 42, 65, 16, 13, 13, 8, 26, 35, 38, 5, 0)
s = 195: (0, 28, 42, 25, 11, 22, 6, 11, 20, 42, 5, 0)
s = 196: (0, 40, 35, 10, 14, 12, 7, 20, 30, 27, 7, 0)
s = 197: (0, 41, 37, 13, 11, 11, 9, 12, 19, 46, 3, 0)
s = 198: (0, 68, 34, 11, 14, 16, 7, 18, 31, 30, 7, 0)
s = 199: (0, 54, 30, 18, 10, 14, 11, 15, 39, 19, 4, 0)
s = 200: (0, 36, 60, 19, 13, 16, 12, 12, 26, 17, 6, 0)
------------------------------------------------------------------------
RESOURCE k = 3
s = 1: (0, 36, 58, 16, 8, 15, 3, 12, 39, 20, 3, 0)
s = 2: (0, 21, 53, 20, 17, 19, 5, 22, 31, 21, 3, 0)
s = 3: (0, 38, 96, 18, 12, 25, 2, 16, 74, 42, 3, 0)
s = 4: (0, 25, 59, 12, 7, 16, 2, 30, 68, 36, 5, 0)
s = 5: (0, 33, 55, 11, 19, 17, 3, 27, 90, 38, 4, 0)
s = 6: (0, 19, 40, 16, 11, 19, 5, 17, 39, 31, 4, 0)
s = 7: (0, 21, 52, 20, 20, 17, 2, 17, 40, 22, 5, 0)
s = 8: (0, 37, 48, 15, 8, 21, 2, 22, 35, 37, 5, 0)
s = 9: (0, 22, 41, 22, 13, 24, 3, 17, 54, 30, 7, 0)
s = 10: (0, 28, 81, 9, 14, 17, 3, 15, 91, 19, 4, 0)
s = 11: (0, 44, 65, 17, 15, 16, 4, 17, 61, 34, 5, 0)
s = 12: (0, 38, 102, 14, 13, 18, 2, 17, 96, 36, 8, 0)
s = 13: (0, 38, 89, 16, 12, 26, 4, 22, 63, 37, 4, 0)
s = 14: (0, 44, 46, 13, 9, 15, 4, 18, 31, 19, 5, 0)
s = 15: (0, 28, 80, 10, 13, 17, 2, 15, 35, 26, 7, 0)
s = 16: (0, 29, 85, 16, 15, 12, 4, 31, 40, 30, 4, 0)
s = 17: (0, 18, 48, 12, 11, 12, 4, 27, 60, 25, 5, 0)
s = 18: (0, 28, 71, 17, 15, 16, 3, 28, 91, 37, 4, 0)
s = 19: (0, 24, 76, 17, 14, 20, 2, 19, 59, 25, 4, 0)
s = 20: (0, 18, 51, 9, 8, 12, 2, 12, 54, 26, 4, 0)
s = 21: (0, 38, 47, 21, 12, 22, 3, 16, 52, 30, 4, 0)
s = 22: (0, 37, 81, 24, 15, 19, 3, 26, 53, 26, 4, 0)
s = 23: (0, 39, 76, 19, 9, 22, 4, 18, 52, 23, 4, 0)
s = 24: (0, 32, 45, 18, 8, 14, 5, 13, 29, 38, 6, 0)
s = 25: (0, 34, 59, 14, 13, 18, 3, 29, 54, 31, 5, 0)
s = 26: (0, 16, 41, 19, 12, 16, 4, 15, 65, 34, 5, 0)
s = 27: (0, 38, 66, 11, 8, 16, 2, 21, 69, 47, 3, 0)
s = 28: (0, 22, 77, 15, 10, 29, 3, 14, 70, 51, 4, 0)
s = 29: (0, 46, 66, 11, 10, 24, 3, 21, 80, 34, 3, 0)
s = 30: (0, 28, 60, 13, 9, 13, 2, 16, 35, 45, 4, 0)
s = 31: (0, 25, 51, 19, 18, 26, 3, 10, 56, 46, 4, 0)
s = 32: (0, 22, 56, 13, 9, 19, 3, 23, 67, 36, 4, 0)
s = 33: (0, 30, 42, 14, 14, 13, 3, 13, 39, 38, 6, 0)
s = 34: (0, 25, 74, 25, 10, 17, 4, 16, 40, 31, 5, 0)
s = 35: (0, 25, 88, 16, 18, 18, 3, 17, 44, 35, 5, 0)
s = 36: (0, 25, 41, 15, 10, 14, 3, 15, 67, 37, 6, 0)
s = 37: (0, 20, 98, 21, 10, 19, 3, 23, 31, 31, 4, 0)
s = 38: (0, 40, 47, 10, 11, 11, 5, 13, 45, 24, 5, 0)
s = 39: (0, 18, 93, 23, 15, 17, 3, 27, 52, 37, 4, 0)
s = 40: (0, 29, 74, 22, 13, 18, 2, 24, 44, 46, 3, 0)
s = 41: (0, 19, 91, 15, 14, 25, 5, 13, 58, 27, 4, 0)
s = 42: (0, 34, 81, 12, 17, 21, 5, 17, 50, 25, 6, 0)
s = 43: (0, 27, 87, 12, 12, 25, 3, 15, 51, 22, 6, 0)
s = 44: (0, 25, 39, 16, 17, 22, 4, 15, 48, 26, 4, 0)
s = 45: (0, 34, 79, 11, 11, 13, 3, 10, 68, 35, 4, 0)
s = 46: (0, 33, 93, 27, 14, 17, 4, 27, 57, 43, 4, 0)
s = 47: (0, 34, 50, 21, 12, 14, 5, 19, 78, 43, 3, 0)
s = 48: (0, 53, 64, 14, 14, 23, 3, 30, 51, 24, 5, 0)
s = 49: (0, 43, 99, 14, 12, 18, 3, 21, 57, 41, 4, 0)
s = 50: (0, 30, 121, 14, 19, 31, 5, 14, 72, 20, 4, 0)
s = 51: (0, 25, 94, 15, 10, 23, 5, 27, 48, 46, 3, 0)
s = 52: (0, 26, 80, 25, 11, 21, 2, 22, 86, 23, 3, 0)
s = 53: (0, 23, 58, 19, 14, 25, 3, 19, 53, 29, 4, 0)
s = 54: (0, 24, 66, 12, 8, 12, 4, 24, 57, 23, 5, 0)
s = 55: (0, 27, 92, 17, 10, 15, 3, 23, 63, 36, 5, 0)
s = 56: (0, 20, 48, 24, 12, 21, 3, 20, 58, 24, 4, 0)
s = 57: (0, 23, 58, 12, 15, 18, 3, 18, 77, 40, 3, 0)
s = 58: (0, 30, 46, 15, 11, 16, 4, 16, 74, 46, 6, 0)
s = 59: (0, 43, 64, 16, 10, 14, 4, 11, 48, 33, 4, 0)
s = 60: (0, 29, 52, 14, 13, 19, 3, 16, 46, 51, 3, 0)
s = 61: (0, 28, 94, 19, 17, 12, 4, 17, 77, 22, 4, 0)
s = 62: (0, 32, 70, 14, 8, 26, 3, 17, 47, 19, 4, 0)
s = 63: (0, 22, 56, 10, 13, 10, 4, 18, 73, 21, 6, 0)
s = 64: (0, 17, 58, 15, 9, 18, 3, 16, 46, 25, 6, 0)
s = 65: (0, 26, 55, 13, 11, 20, 4, 28, 66, 28, 5, 0)
s = 66: (0, 39, 62, 11, 12, 13, 5, 10, 51, 23, 3, 0)
s = 67: (0, 22, 51, 19, 11, 14, 3, 16, 80, 33, 5, 0)
s = 68: (0, 26, 44, 24, 11, 20, 3, 14, 39, 24, 4, 0)
s = 69: (0, 32, 92, 20, 8, 12, 3, 19, 34, 53, 5, 0)
s = 70: (0, 24, 74, 14, 7, 23, 3, 20, 43, 25, 3, 0)
s = 71: (0, 37, 43, 22, 15, 29, 3, 13, 72, 32, 4, 0)
s = 72: (0, 22, 76, 11, 11, 15, 4, 17, 64, 28, 4, 0)
s = 73: (0, 22, 58, 13, 13, 25, 4, 26, 46, 26, 5, 0)
s = 74: (0, 30, 52, 20, 9, 19, 2, 14, 76, 33, 5, 0)
s = 75: (0, 35, 64, 12, 10, 21, 4, 11, 75, 37, 6, 0)
s = 76: (0, 21, 56, 22, 17, 23, 4, 17, 34, 36, 3, 0)
s = 77: (0, 32, 59, 24, 14, 19, 4, 20, 65, 20, 4, 0)
s = 78: (0, 19, 55, 19, 8, 19, 3, 27, 80, 47, 5, 0)
s = 79: (0, 28, 57, 23, 14, 18, 5, 16, 96, 28, 4, 0)
s = 80: (0, 38, 80, 14, 10, 30, 5, 25, 79, 36, 3, 0)
s = 81: (0, 32, 52, 20, 16, 16, 4, 13, 37, 36, 6, 0)
s = 82: (0, 41, 47, 13, 9, 17, 3, 24, 70, 22, 5, 0)
s = 83: (0, 32, 53, 25, 9, 20, 3, 12, 73, 34, 6, 0)
s = 84: (0, 20, 50, 14, 11, 17, 3, 22, 65, 37, 3, 0)
s = 85: (0, 19, 79, 17, 13, 15, 5, 15, 36, 19, 4, 0)
s = 86: (0, 37, 56, 16, 9, 26, 3, 21, 36, 39, 4, 0)
s = 87: (0, 20, 61, 9, 11, 22, 4, 26, 53, 33, 3, 0)
s = 88: (0, 38, 78, 17, 15, 19, 3, 24, 52, 24, 5, 0)
s = 89: (0, 22, 71, 19, 14, 23, 6, 20, 63, 37, 4, 0)
s = 90: (0, 29, 38, 17, 15, 17, 3, 16, 66, 42, 4, 0)
s = 91: (0, 27, 53, 15, 9, 14, 5, 18, 56, 26, 4, 0)
s = 92: (0, 30, 85, 18, 20, 16, 5, 22, 47, 48, 3, 0)
s = 93: (0, 22, 58, 18, 8, 15, 3, 25, 36, 42, 4, 0)
s = 94: (0, 27, 51, 12, 12, 35, 3, 28, 57, 25, 4, 0)
s = 95: (0, 43, 107, 22, 13, 16, 4, 16, 32, 32, 6, 0)
s = 96: (0, 37, 64, 16, 7, 15, 4, 24, 40, 22, 6, 0)
s = 97: (0, 33, 89, 18, 8, 27, 4, 22, 30, 26, 4, 0)
s = 98: (0, 24, 71, 29, 8, 14, 3, 30, 54, 28, 4, 0)
s = 99: (0, 26, 58, 16, 10, 21, 4, 20, 57, 23, 3, 0)
s = 100: (0, 30, 91, 21, 8, 19, 3, 22, 75, 22, 5, 0)
s = 101: (0, 39, 76, 20, 9, 20, 3, 19, 42, 41, 5, 0)
s = 102: (0, 22, 40, 10, 24, 17, 3, 14, 73, 28, 7, 0)
s = 103: (0, 37, 93, 14, 10, 21, 3, 18, 36, 42, 5, 0)
s = 104: (0, 34, 75, 12, 10, 24, 4, 24, 56, 63, 4, 0)
s = 105: (0, 21, 89, 14, 10, 21, 4, 29, 45, 24, 5, 0)
s = 106: (0, 35, 108, 23, 17, 31, 4, 13, 37, 39, 4, 0)
s = 107: (0, 26, 61, 13, 18, 16, 3, 10, 33, 55, 3, 0)
s = 108: (0, 35, 89, 19, 20, 17, 3, 14, 71, 42, 5, 0)
s = 109: (0, 44, 61, 24, 13, 18, 3, 24, 43, 37, 7, 0)
s = 110: (0, 52, 85, 18, 14, 20, 3, 15, 64, 22, 4, 0)
s = 111: (0, 22, 90, 14, 11, 14, 4, 29, 54, 30, 5, 0)
s = 112: (0, 43, 105, 20, 15, 12, 4, 13, 85, 32, 4, 0)
s = 113: (0, 29, 49, 14, 18, 11, 5, 20, 45, 25, 4, 0)
s = 114: (0, 28, 82, 26, 8, 16, 2, 21, 41, 28, 6, 0)
s = 115: (0, 44, 46, 21, 14, 25, 3, 20, 63, 27, 6, 0)
s = 116: (0, 38, 82, 20, 12, 24, 5, 11, 65, 23, 5, 0)
s = 117: (0, 35, 72, 12, 11, 13, 4, 22, 107, 24, 5, 0)
s = 118: (0, 42, 69, 15, 13, 22, 3, 15, 36, 34, 4, 0)
s = 119: (0, 33, 37, 11, 16, 14, 3, 13, 65, 21, 5, 0)
s = 120: (0, 17, 39, 21, 9, 12, 4, 19, 44, 28, 5, 0)
s = 121: (0, 46, 57, 21, 14, 25, 4, 15, 78, 40, 4, 0)
s = 122: (0, 34, 62, 14, 9, 12, 5, 22, 42, 38, 4, 0)
s = 123: (0, 33, 114, 23, 11, 13, 4, 17, 81, 30, 4, 0)
s = 124: (0, 43, 52, 14, 14, 17, 3, 16, 46, 26, 3, 0)
s = 125: (0, 24, 56, 14, 12, 25, 4, 16, 73, 22, 5, 0)
s = 126: (0, 22, 73, 13, 11, 19, 4, 19, 73, 31, 7, 0)
s = 127: (0, 47, 64, 14, 13, 24, 4, 18, 66, 36, 4, 0)
s = 128: (0, 40, 59, 11, 9, 22, 4, 14, 79, 22, 4, 0)
s = 129: (0, 32, 60, 9, 13, 13, 4, 20, 53, 38, 5, 0)
s = 130: (0, 22, 67, 19, 8, 24, 3, 25, 63, 35, 4, 0)
s = 131: (0, 37, 66, 10, 11, 14, 4, 16, 44, 27, 6, 0)
s = 132: (0, 46, 52, 15, 13, 27, 4, 18, 37, 18, 5, 0)
s = 133: (0, 30, 47, 16, 16, 29, 5, 13, 44, 42, 3, 0)
s = 134: (0, 22, 86, 15, 16, 21, 3, 29, 56, 39, 7, 0)
s = 135: (0, 26, 49, 15, 14, 23, 5, 21, 38, 20, 4, 0)
s = 136: (0, 32, 56, 16, 15, 16, 3, 24, 50, 31, 3, 0)
s = 137: (0, 41, 79, 21, 15, 30, 3, 14, 74, 38, 4, 0)
s = 138: (0, 49, 71, 24, 10, 13, 4, 13, 35, 30, 7, 0)
s = 139: (0, 31, 40, 30, 10, 11, 3, 29, 44, 52, 4, 0)
s = 140: (0, 20, 70, 22, 12, 17, 3, 17, 56, 21, 5, 0)
s = 141: (0, 26, 54, 19, 12, 13, 4, 17, 43, 22, 3, 0)
s = 142: (0, 18, 74, 18, 10, 23, 3, 22, 52, 30, 6, 0)
s = 143: (0, 29, 89, 20, 17, 12, 4, 15, 71, 45, 5, 0)
s = 144: (0, 44, 72, 14, 15, 23, 4, 14, 39, 48, 4, 0)
s = 145: (0, 46, 93, 9, 9, 18, 3, 18, 46, 43, 3, 0)
s = 146: (0, 31, 61, 22, 11, 34, 4, 11, 39, 19, 5, 0)
s = 147: (0, 17, 51, 17, 8, 15, 4, 17, 62, 25, 4, 0)
s = 148: (0, 20, 42, 17, 21, 15, 3, 26, 40, 42, 6, 0)
s = 149: (0, 30, 71, 21, 14, 21, 4, 28, 72, 42, 5, 0)
s = 150: (0, 35, 77, 10, 11, 27, 4, 16, 82, 34, 4, 0)
s = 151: (0, 28, 52, 29, 9, 15, 3, 13, 43, 23, 4, 0)
s = 152: (0, 20, 43, 24, 10, 19, 2, 10, 66, 41, 5, 0)
s = 153: (0, 29, 52, 14, 11, 16, 4, 25, 73, 29, 4, 0)
s = 154: (0, 33, 73, 19, 12, 23, 4, 21, 34, 25, 5, 0)
s = 155: (0, 39, 62, 17, 13, 13, 3, 18, 52, 45, 7, 0)
s = 156: (0, 36, 73, 19, 9, 13, 3, 22, 69, 31, 5, 0)
s = 157: (0, 23, 55, 11, 8, 11, 5, 10, 57, 48, 5, 0)
s = 158: (0, 22, 33, 22, 10, 13, 3, 13, 88, 34, 5, 0)
s = 159: (0, 28, 70, 19, 15, 20, 3, 25, 51, 40, 6, 0)
s = 160: (0, 24, 75, 19, 11, 15, 3, 24, 41, 33, 5, 0)
s = 161: (0, 27, 90, 18, 13, 21, 3, 11, 54, 48, 4, 0)
s = 162: (0, 39, 82, 13, 19, 21, 4, 13, 57, 32, 7, 0)
s = 163: (0, 30, 62, 14, 13, 19, 3, 26, 76, 51, 3, 0)
s = 164: (0, 46, 43, 10, 14, 25, 2, 16, 73, 39, 3, 0)
s = 165: (0, 27, 52, 12, 10, 18, 3, 20, 75, 36, 5, 0)
s = 166: (0, 31, 46, 16, 13, 28, 3, 15, 95, 21, 3, 0)
s = 167: (0, 62, 47, 24, 14, 15, 5, 21, 66, 41, 5, 0)
s = 168: (0, 27, 41, 12, 9, 17, 6, 25, 45, 41, 7, 0)
s = 169: (0, 48, 85, 18, 13, 20, 4, 16, 31, 25, 4, 0)
s = 170: (0, 26, 74, 12, 19, 23, 4, 17, 55, 21, 4, 0)
s = 171: (0, 30, 66, 13, 20, 20, 3, 20, 37, 44, 4, 0)
s = 172: (0, 44, 69, 15, 11, 15, 3, 21, 53, 49, 6, 0)
s = 173: (0, 43, 43, 20, 11, 19, 3, 15, 68, 24, 3, 0)
s = 174: (0, 33, 59, 12, 13, 13, 3, 14, 58, 28, 5, 0)
s = 175: (0, 25, 80, 13, 17, 22, 2, 23, 73, 34, 4, 0)
s = 176: (0, 34, 41, 17, 14, 12, 6, 10, 52, 25, 5, 0)
s = 177: (0, 42, 64, 18, 19, 21, 3, 14, 50, 37, 5, 0)
s = 178: (0, 25, 51, 10, 12, 22, 3, 19, 51, 29, 3, 0)
s = 179: (0, 19, 83, 12, 13, 23, 3, 21, 70, 42, 4, 0)
s = 180: (0, 23, 57, 15, 7, 11, 3, 16, 34, 23, 4, 0)
s = 181: (0, 36, 103, 17, 10, 27, 4, 15, 55, 38, 5, 0)
s = 182: (0, 17, 49, 16, 13, 21, 5, 25, 70, 32, 5, 0)
s = 183: (0, 47, 43, 26, 13, 15, 3, 15, 71, 31, 4, 0)
s = 184: (0, 29, 71, 13, 8, 13, 3, 25, 52, 28, 5, 0)
s = 185: (0, 29, 41, 13, 8, 17, 5, 15, 68, 22, 4, 0)
s = 186: (0, 20, 85, 23, 12, 21, 3, 14, 40, 41, 4, 0)
s = 187: (0, 16, 79, 21, 11, 15, 4, 14, 78, 33, 4, 0)
s = 188: (0, 30, 64, 19, 10, 24, 2, 15, 35, 53, 6, 0)
s = 189: (0, 40, 63, 13, 12, 22, 3, 19, 60, 57, 4, 0)
s = 190: (0, 35, 35, 18, 9, 17, 3, 21, 37, 26, 4, 0)
s = 191: (0, 30, 73, 14, 14, 28, 2, 16, 58, 30, 5, 0)
s = 192: (0, 49, 45, 13, 8, 27, 2, 17, 46, 49, 6, 0)
s = 193: (0, 29, 61, 21, 12, 27, 2, 26, 51, 46, 4, 0)
s = 194: (0, 28, 91, 16, 11, 19, 3, 29, 70, 38, 4, 0)
s = 195: (0, 19, 59, 25, 10, 33, 2, 12, 39, 42, 4, 0)
s = 196: (0, 27, 49, 10, 12, 17, 3, 23, 59, 27, 6, 0)
s = 197: (0, 28, 51, 13, 10, 16, 4, 14, 38, 46, 3, 0)
s = 198: (0, 45, 48, 11, 12, 23, 3, 20, 62, 30, 6, 0)
s = 199: (0, 36, 42, 18, 9, 21, 4, 17, 78, 19, 4, 0)
s = 200: (0, 24, 83, 19, 11, 24, 5, 14, 52, 17, 5, 0)
************************************************************************
ES/LS-VALUES:
jobnr.   ES(i)    LS(i)
------------------------------------------------------------------------
  0        0        0
  1        0       53
  2        0       50
  3        0       72
  4       17       78
  5       10       64
  6       17       68
  7       17       78
  8       19       70
  9       19       76
 10       21       82
 11       32       84
************************************************************************
BIG-M-VALUES:
M1 = 93, M2 = 465
************************************************************************
